(set-info :source |printed by MathSAT|)
(declare-fun a_1 () (Array Int Int))
(declare-fun .y.7 () (Array Int Int))
(declare-fun acopy_1 () (Array Int Int))
(declare-fun .y.8 () (Array Int Int))
(declare-fun i_1 () Int)
(declare-fun .y.9 () Int)
(declare-fun S_1 () Int)
(declare-fun .y.10 () Int)
(declare-fun .loc.6 () Bool)
(declare-fun .loc.11 () Bool)
(declare-fun i1_0 () Int)
(define-fun .def_8 () (Array Int Int) (! a_1 :next |.y.7|))
(define-fun .def_10 () (Array Int Int) (! acopy_1 :next |.y.8|))
(define-fun .def_12 () Int (! i_1 :next |.y.9|))
(define-fun .def_14 () Int (! S_1 :next |.y.10|))
(define-fun .def_16 () Bool (! .loc.6 :next |.loc.11|))
(define-fun .def_78 () Bool (<= 1 .def_14))
(define-fun .def_76 () Bool (= .def_12 0))
(define-fun .def_79 () Bool (and .def_76 .def_78))
(define-fun .def_74 () Bool (! (not .def_16) :invar-property 0))
(define-fun .def_80 () Bool (! (and .def_74 .def_79) :init true))
(define-fun .def_68 () Int (select .def_10 i1_0))
(define-fun .def_67 () Int (select .def_8 i1_0))
(define-fun .def_69 () Bool (= .def_67 .def_68))
(define-fun .def_70 () Bool (not .def_69))
(define-fun .def_62 () Int (* (- 1) i1_0))
(define-fun .def_39 () Int (* 4 .def_14))
(define-fun .def_63 () Int (+ .def_39 .def_62))
(define-fun .def_64 () Bool (<= .def_63 0))
(define-fun .def_65 () Bool (not .def_64))
(define-fun .def_60 () Bool (<= 0 i1_0))
(define-fun .def_19 () Bool (<= .def_14 .def_12))
(define-fun .def_61 () Bool (and .def_19 .def_60))
(define-fun .def_66 () Bool (and .def_61 .def_65))
(define-fun .def_71 () Bool (and .def_66 .def_70))
(define-fun .def_72 () Bool (and .loc.11 .def_71))
(define-fun .def_56 () Bool (= .def_14 .y.10))
(define-fun .def_54 () Bool (= .def_8 .y.7))
(define-fun .def_50 () Int (* (- 1) .y.9))
(define-fun .def_51 () Int (+ .def_12 .def_50))
(define-fun .def_52 () Bool (= .def_51 (- 1)))
(define-fun .def_22 () Int (select .def_8 .def_12))
(define-fun .def_25 () Int (* 2 .def_14))
(define-fun .def_26 () Int (* (- 1) .def_12))
(define-fun .def_29 () Int (+ .def_26 .def_25))
(define-fun .def_30 () Int (+ .def_29 (- 1)))
(define-fun .def_31 () Int (select .def_8 .def_30))
(define-fun .def_33 () Int (* 3 .def_14))
(define-fun .def_34 () Int (+ .def_26 .def_33))
(define-fun .def_36 () Int (+ .def_34 (- 1)))
(define-fun .def_37 () Int (select .def_8 .def_36))
(define-fun .def_40 () Int (+ .def_26 .def_39))
(define-fun .def_42 () Int (+ .def_40 (- 1)))
(define-fun .def_43 () Int (select .def_8 .def_42))
(define-fun .def_44 () (Array Int Int) (store .def_10 .def_42 .def_43))
(define-fun .def_45 () (Array Int Int) (store .def_44 .def_36 .def_37))
(define-fun .def_46 () (Array Int Int) (store .def_45 .def_30 .def_31))
(define-fun .def_47 () (Array Int Int) (store .def_46 .def_12 .def_22))
(define-fun .def_48 () Bool (= .y.8 .def_47))
(define-fun .def_20 () Bool (not .def_19))
(define-fun .def_18 () Bool (not .loc.11))
(define-fun .def_21 () Bool (and .def_18 .def_20))
(define-fun .def_49 () Bool (and .def_21 .def_48))
(define-fun .def_53 () Bool (and .def_49 .def_52))
(define-fun .def_55 () Bool (and .def_53 .def_54))
(define-fun .def_57 () Bool (and .def_55 .def_56))
(define-fun .def_73 () Bool (or .def_57 .def_72))
(define-fun .def_75 () Bool (! (and .def_73 .def_74) :trans true))
(assert true)
